5 5
6 4 1 20 3 9 5 10 2 9 2 5 4 4 9 1 1 9 4 3 16 2 17 1 16 5 4 5 5 12 4 5 3 3 1 16 2 4 5 5 15 3 12 1 13 2 11 4 14
5 4 3 12 1 6 4 13 5 8 4 5 18 3 13 4 9 2 17 3 2 9 4 16 1 9 5 1 4 4 3 2 13 3 14 5 11 5 4 16 1 8 2 8 3 10 5 3
4 1 2 11 4 5 8 2 9 1 19 3 18 1 1 2 5 5 14 3 9 2 15 1 2 4 20
4 5 1 9 2 9 3 2 5 6 4 8 3 5 6 3 15 1 9 1 1 11 5 4 9 5 20 3 15 2 8 1 9
6 3 3 20 2 19 1 7 5 3 10 1 2 4 18 2 16 5 5 1 1 9 5 1 10 2 6 4 8 5 18 3 9 3 1 14 3 14 5 19 4 2 13 4 13 5 11 3 11